140475
0,86,43,65,58,9,26,27,57,75,88,92,11,91,22,79,56,82,33,25,49,67,98,18,8,105,7,96,54,28,29,4,51,64,30,97,12,87,68,41,80,5,39,55,19,15,63,89,16,20,76,45,85,21,61,24,44,1,72,47,84,10,40,66,94,103,37,104,100,2,93,77,95,59,90,78,14,3,74,62,31,6,17,69,70,53,35,36,48,38,83,52,32,81,71,99,50,34,102,60,46,13,73,101,23,42,0